29367.0
1 0 1 0 1 1 1 1 1 0 1 1 1 1 0 1 0 1 1 0 1 0 1 1 1 1 1 1 1 0 
18 6 2 27 2 12 15 27 22 28 4 28 13 13 28 18 13 20 22 0 18 24 5 24 10 18 27 28 4 2 6 26 4 24 27 6 20 8 24 15 18 8 6 4 8 26 13 2 6 20 24 24 24 15 8 6 11 8 18 25 4 0 7 8 13 11 5 17 28 25 18 12 6 8 23 23 20 23 8 24 10 0 26 25 4 13 6 5 27 7 28 6 25 25 2 13 11 6 0 28 28 15 25 18 4 0 4 24 22 13 26 4 27 12 12 8 28 7 17 8 26 11 17 6 26 15 2 11 26 17 28 24 25 20 23 8 13 13 28 10 12 22 11 11 25 5 24 15 27 25 24 17 23 0 8 11 2 15 13 13 13 27 10 24 5 27 5 4 13 15 5 20 28 10 26 2 0 10 4 10 5 15 2 6 12 8 28 23 0 2 2 2 6 4 7 12 7 15 10 6 